\ LP format - for model browsing. Use MPS format to capture full model detail.
Minimize
  - 12 q_6x + 24 Constant + [ 72 q_0x ^2 - 252 q_0x * q_1x
   + 132.0048 q_0x * q_2x - 24.0048 q_0x * q_3x + 72 q_0y ^2
   - 252 q_0y * q_1y + 132.0048 q_0y * q_2y - 24.0048 q_0y * q_3y
   + 72 q_0z ^2 - 252 q_0z * q_1z + 132.0048 q_0z * q_2z
   - 24.0048 q_0z * q_3z + 225 q_1x ^2 - 252.0072 q_1x * q_2x
   + 60.0084 q_1x * q_3x - 6.0012 q_1x * q_4x + 225 q_1y ^2
   - 252.0072 q_1y * q_2y + 60.0084 q_1y * q_3y - 6.0012 q_1y * q_4y
   + 225 q_1z ^2 - 252.0072 q_1z * q_2z + 60.0084 q_1z * q_3z
   - 6.0012 q_1z * q_4z + 87.00240024 q_2x ^2 - 76.00520016 q_2x * q_3x
   + 28.00399968 q_2x * q_4x - 6.0012 q_2x * q_5x + 87.00240024 q_2y ^2
   - 76.00520016 q_2y * q_3y + 28.00399968 q_2y * q_4y - 6.0012 q_2y * q_5y
   + 87.00240024 q_2z ^2 - 76.00520016 q_2z * q_3z
   + 28.00399968 q_2z * q_4z - 6.0012 q_2z * q_5z + 40.00160016 q_3x ^2
   - 76.00520016 q_3x * q_4x + 60.0084 q_3x * q_5x - 24.0048 q_3x * q_6x
   + 40.00160016 q_3y ^2 - 76.00520016 q_3y * q_4y + 60.0084 q_3y * q_5y
   - 24.0048 q_3y * q_6y + 40.00160016 q_3z ^2 - 76.00520016 q_3z * q_4z
   + 60.0084 q_3z * q_5z - 24.0048 q_3z * q_6z + 87.00240024 q_4x ^2
   - 252.0072 q_4x * q_5x + 132.0048 q_4x * q_6x + 87.00240024 q_4y ^2
   - 252.0072 q_4y * q_5y + 132.0048 q_4y * q_6y + 87.00240024 q_4z ^2
   - 252.0072 q_4z * q_5z + 132.0048 q_4z * q_6z + 225 q_5x ^2
   - 252 q_5x * q_6x + 225 q_5y ^2 - 252 q_5y * q_6y + 225 q_5z ^2
   - 252 q_5z * q_6z + 75 q_6x ^2 + 75 q_6y ^2 + 75 q_6z ^2 ] / 2 
Subject To
 R0: q_0x = -4
 R1: q_0y = 0
 R2: q_0z = 0
 R3: q_1x = -4
 R4: q_1y = 0
 R5: q_1z = 0
 R6: q_2x = -4
 R7: q_2y = 0
 R8: q_2z = 0
 R9: - q_5x + q_6x = 0
 R10: - q_5y + q_6y = 0
 R11: - q_5z + q_6z = 0
 R12: - q_4x + q_5x = 0
 R13: - q_4y + q_5y = 0
 R14: - q_4z + q_5z = 0
 R15: 4.285714285714286 q_0x <= -2.857142857142858
 R16: 4.285714285714286 q_1x <= -2.857142857142858
 R17: 4.285714285714286 q_2x <= -2.857142857142858
 R18: 4.285714285714286 q_3x <= -2.857142857142858
 R19: 4.285714285714286 q_1x <= -2.857142857142858
 R20: 4.285714285714286 q_2x <= -2.857142857142858
 R21: 4.285714285714286 q_3x <= -2.857142857142858
 R22: 4.285714285714286 q_4x <= -2.857142857142858
 R23: 4.285714285714286 q_2x <= -2.857142857142858
 R24: 4.285714285714286 q_3x <= -2.857142857142858
 R25: 4.285714285714286 q_4x <= -2.857142857142858
 R26: 4.285714285714286 q_5x <= -2.857142857142858
 R27: 4.285714285714287 q_3x <= -2.857142857142858
 R28: 4.285714285714287 q_4x <= -2.857142857142858
 R29: 4.285714285714287 q_5x <= -2.857142857142858
 R30: 4.285714285714287 q_6x <= -2.857142857142858
 R31: - 0.9 q_0x + 0.9 q_1x <= 2
 R32: - 0.9 q_0y + 0.9 q_1y <= 2
 R33: - 0.9 q_0z + 0.9 q_1z <= 2
 R34: - 0.9 q_0x + 0.9 q_1x >= -2
 R35: - 0.9 q_0y + 0.9 q_1y >= -2
 R36: - 0.9 q_0z + 0.9 q_1z >= -2
 R37: - 0.45 q_1x + 0.45 q_2x <= 2
 R38: - 0.45 q_1y + 0.45 q_2y <= 2
 R39: - 0.45 q_1z + 0.45 q_2z <= 2
 R40: - 0.45 q_1x + 0.45 q_2x >= -2
 R41: - 0.45 q_1y + 0.45 q_2y >= -2
 R42: - 0.45 q_1z + 0.45 q_2z >= -2
 R43: - 0.3 q_2x + 0.3 q_3x <= 2
 R44: - 0.3 q_2y + 0.3 q_3y <= 2
 R45: - 0.3 q_2z + 0.3 q_3z <= 2
 R46: - 0.3 q_2x + 0.3 q_3x >= -2
 R47: - 0.3 q_2y + 0.3 q_3y >= -2
 R48: - 0.3 q_2z + 0.3 q_3z >= -2
 R49: - 0.45 q_1x + 0.45 q_2x <= 2
 R50: - 0.45 q_1y + 0.45 q_2y <= 2
 R51: - 0.45 q_1z + 0.45 q_2z <= 2
 R52: - 0.45 q_1x + 0.45 q_2x >= -2
 R53: - 0.45 q_1y + 0.45 q_2y >= -2
 R54: - 0.45 q_1z + 0.45 q_2z >= -2
 R55: - 0.3 q_2x + 0.3 q_3x <= 2
 R56: - 0.3 q_2y + 0.3 q_3y <= 2
 R57: - 0.3 q_2z + 0.3 q_3z <= 2
 R58: - 0.3 q_2x + 0.3 q_3x >= -2
 R59: - 0.3 q_2y + 0.3 q_3y >= -2
 R60: - 0.3 q_2z + 0.3 q_3z >= -2
 R61: - 0.3 q_3x + 0.3 q_4x <= 2
 R62: - 0.3 q_3y + 0.3 q_4y <= 2
 R63: - 0.3 q_3z + 0.3 q_4z <= 2
 R64: - 0.3 q_3x + 0.3 q_4x >= -2
 R65: - 0.3 q_3y + 0.3 q_4y >= -2
 R66: - 0.3 q_3z + 0.3 q_4z >= -2
 R67: - 0.3 q_2x + 0.3 q_3x <= 2
 R68: - 0.3 q_2y + 0.3 q_3y <= 2
 R69: - 0.3 q_2z + 0.3 q_3z <= 2
 R70: - 0.3 q_2x + 0.3 q_3x >= -2
 R71: - 0.3 q_2y + 0.3 q_3y >= -2
 R72: - 0.3 q_2z + 0.3 q_3z >= -2
 R73: - 0.3 q_3x + 0.3 q_4x <= 2
 R74: - 0.3 q_3y + 0.3 q_4y <= 2
 R75: - 0.3 q_3z + 0.3 q_4z <= 2
 R76: - 0.3 q_3x + 0.3 q_4x >= -2
 R77: - 0.3 q_3y + 0.3 q_4y >= -2
 R78: - 0.3 q_3z + 0.3 q_4z >= -2
 R79: - 0.45 q_4x + 0.45 q_5x <= 2
 R80: - 0.45 q_4y + 0.45 q_5y <= 2
 R81: - 0.45 q_4z + 0.45 q_5z <= 2
 R82: - 0.45 q_4x + 0.45 q_5x >= -2
 R83: - 0.45 q_4y + 0.45 q_5y >= -2
 R84: - 0.45 q_4z + 0.45 q_5z >= -2
 R85: 0.135 q_1x - 0.225 q_2x + 0.09 q_3x <= 2
 R86: 0.135 q_1y - 0.225 q_2y + 0.09 q_3y <= 2
 R87: 0.135 q_1z - 0.225 q_2z + 0.09 q_3z <= 2
 R88: 0.135 q_1x - 0.225 q_2x + 0.09 q_3x >= -2
 R89: 0.135 q_1y - 0.225 q_2y + 0.09 q_3y >= -2
 R90: 0.135 q_1z - 0.225 q_2z + 0.09 q_3z >= -2
 R91: 0.09 q_2x - 0.18 q_3x + 0.09 q_4x <= 2
 R92: 0.09 q_2y - 0.18 q_3y + 0.09 q_4y <= 2
 R93: 0.09 q_2z - 0.18 q_3z + 0.09 q_4z <= 2
 R94: 0.09 q_2x - 0.18 q_3x + 0.09 q_4x >= -2
 R95: 0.09 q_2y - 0.18 q_3y + 0.09 q_4y >= -2
 R96: 0.09 q_2z - 0.18 q_3z + 0.09 q_4z >= -2
 R97: 0.09 q_3x - 0.225 q_4x + 0.135 q_5x <= 2
 R98: 0.09 q_3y - 0.225 q_4y + 0.135 q_5y <= 2
 R99: 0.09 q_3z - 0.225 q_4z + 0.135 q_5z <= 2
 R100: 0.09 q_3x - 0.225 q_4x + 0.135 q_5x >= -2
 R101: 0.09 q_3y - 0.225 q_4y + 0.135 q_5y >= -2
 R102: 0.09 q_3z - 0.225 q_4z + 0.135 q_5z >= -2
 qc0: 8 q_0x + [ q_0x ^2 + q_0y ^2 + q_0z ^2 ] <= -0
 qc1: 8 q_1x + [ q_1x ^2 + q_1y ^2 + q_1z ^2 ] <= -0
 qc2: 8 q_2x + [ q_2x ^2 + q_2y ^2 + q_2z ^2 ] <= -0
 qc3: 8 q_3x + [ q_3x ^2 + q_3y ^2 + q_3z ^2 ] <= -0
 qc4: 8 q_1x + [ q_1x ^2 + q_1y ^2 + q_1z ^2 ] <= -0
 qc5: 8 q_2x + [ q_2x ^2 + q_2y ^2 + q_2z ^2 ] <= -0
 qc6: 8 q_3x + [ q_3x ^2 + q_3y ^2 + q_3z ^2 ] <= -0
 qc7: 8 q_4x + [ q_4x ^2 + q_4y ^2 + q_4z ^2 ] <= -0
 qc8: 8 q_2x + [ q_2x ^2 + q_2y ^2 + q_2z ^2 ] <= -0
 qc9: 8 q_3x + [ q_3x ^2 + q_3y ^2 + q_3z ^2 ] <= -0
 qc10: 8 q_4x + [ q_4x ^2 + q_4y ^2 + q_4z ^2 ] <= -0
 qc11: 8 q_5x + [ q_5x ^2 + q_5y ^2 + q_5z ^2 ] <= -0
 qc12: 8 q_3x + [ q_3x ^2 + q_3y ^2 + q_3z ^2 ] <= -0
 qc13: 8 q_4x + [ q_4x ^2 + q_4y ^2 + q_4z ^2 ] <= -0
 qc14: 8 q_5x + [ q_5x ^2 + q_5y ^2 + q_5z ^2 ] <= -0
 qc15: 8 q_6x + [ q_6x ^2 + q_6y ^2 + q_6z ^2 ] <= -0
Bounds
 q_0x free
 q_0y free
 q_0z free
 q_1x free
 q_1y free
 q_1z free
 q_2x free
 q_2y free
 q_2z free
 q_3x free
 q_3y free
 q_3z free
 q_4x free
 q_4y free
 q_4z free
 q_5x free
 q_5y free
 q_5z free
 q_6x free
 q_6y free
 q_6z free
 Constant = 1
End
